
Log started (V11.0.0) Sun Apr 13 13:58:09 2008

Tried aggregator 1 time.
Reduced MIP has 230 rows, 6001 columns, and 12030 nonzeros.
Presolve time =    0.05 sec.
Clique table members: 200.
MIP emphasis: balance optimality and feasibility.
MIP search method: dynamic search.
Parallel mode: none, using 1 thread.
Root relaxation solution time =    0.14 sec.

        Nodes                                         Cuts/
   Node  Left     Objective  IInf  Best Integer     Best Node    ItCnt     Gap

*     0+    0                        10079.0000       25.4563      752   99.75%
*     0+    0                           38.0000       25.4563      752   33.01%
      0     0       26.0000    49       38.0000      Fract: 6      757   31.58%
*     0+    0                           37.0000       26.0000      757   29.73%
      0     0       26.0000    48       37.0000       Cuts: 5      768   29.73%
*     0+    0                           36.0000       26.0000      768   27.78%
      0     0       26.0000    47       36.0000   Impl Bds: 1      781   27.78%
*     0+    0                           35.0000       26.0000      781   25.71%
*     0+    0                           34.0000       26.0000      781   23.53%
*     0+    0                           33.0000       26.0000      781   21.21%
*     0+    0                           30.0000       26.0000      781   13.33%

Repeating presolve.
Tried aggregator 1 time.
MIP Presolve eliminated 0 rows and 4277 columns.
Aggregator did 1 substitutions.
Reduced MIP has 229 rows, 1723 columns, and 3474 nonzeros.
Tried aggregator 1 time.
Represolve time =    0.06 sec.
Clique table members: 529.
MIP emphasis: balance optimality and feasibility.
MIP search method: dynamic search.
Parallel mode: none, using 1 thread.
Root relaxation solution time =    0.03 sec.

        Nodes                                         Cuts/
   Node  Left     Objective  IInf  Best Integer     Best Node    ItCnt     Gap

      0     0       26.0000    51       30.0000       26.0000      394   13.33%
      0     2       26.0000    51       30.0000       26.0000      394   13.33%
    100    86       29.0000    41       30.0000       26.0000     2220   13.33%
*   200+  112                           29.0000       26.0000     4653   10.34%
    200   114       27.0000    34       29.0000       26.0000     4653   10.34%
    300   192       28.0000    37       29.0000       26.0000     6978   10.34%
    400   275       27.0000    38       29.0000       26.0000     9550   10.34%
*   486+  227                           28.0000       26.0000    11917    7.14%
    500   230       27.0000    55       28.0000       27.0000    14863    3.57%
    600   246       27.0000    75       28.0000       27.0000    21121    3.57%
    700   230        cutoff             28.0000       27.0000    27189    3.57%
    800   199        cutoff             28.0000       27.0000    41907    3.57%
*   817     0      integral     0       27.0000       27.0000    44575    0.00%

Clique cuts applied:  2
Cover cuts applied:  181
Mixed integer rounding cuts applied:  32
Zero-half cuts applied:  2
Gomory fractional cuts applied:  9

Solution pool: 11 solutions saved.

MIP - Integer optimal solution:  Objective = 2.7000000000e+001
Solution time =   17.11 sec.  Iterations = 44575  Nodes = 818


Incumbent solution
Variable Name           Solution Value
Cmax                         27.000000
X_1_11                        1.000000
X_2_2                         1.000000
X_3_25                        1.000000
X_4_29                        1.000000
X_5_23                        1.000000
X_6_2                         1.000000
X_7_17                        1.000000
X_8_18                        1.000000
X_9_23                        1.000000
X_10_8                        1.000000
X_11_11                       1.000000
X_12_23                       1.000000
X_13_5                        1.000000
X_14_17                       1.000000
X_15_25                       1.000000
X_16_28                       1.000000
X_17_12                       1.000000
X_18_13                       1.000000
X_19_26                       1.000000
X_20_20                       1.000000
X_21_25                       1.000000
X_22_4                        1.000000
X_23_10                       1.000000
X_24_30                       1.000000
X_25_26                       1.000000
X_26_25                       1.000000
X_27_27                       1.000000
X_28_29                       1.000000
X_29_28                       1.000000
X_30_3                        1.000000
X_31_6                        1.000000
X_32_23                       1.000000
X_33_20                       1.000000
X_34_27                       1.000000
X_35_15                       1.000000
X_36_23                       1.000000
X_37_18                       1.000000
X_38_1                        1.000000
X_39_9                        1.000000
X_40_16                       1.000000
X_41_29                       1.000000
X_42_14                       1.000000
X_43_10                       1.000000
X_44_22                       1.000000
X_45_5                        1.000000
X_46_15                       1.000000
X_47_19                       1.000000
X_48_6                        1.000000
X_49_29                       1.000000
X_50_22                       1.000000
X_51_19                       1.000000
X_52_15                       1.000000
X_53_7                        1.000000
X_54_26                       1.000000
X_55_17                       1.000000
X_56_6                        1.000000
X_57_16                       1.000000
X_58_28                       1.000000
X_59_9                        1.000000
X_60_1                        1.000000
X_61_14                       1.000000
X_62_18                       1.000000
X_63_6                        1.000000
X_64_26                       1.000000
X_65_16                       1.000000
X_66_12                       1.000000
X_67_30                       1.000000
X_68_3                        1.000000
X_69_29                       1.000000
X_70_11                       1.000000
X_71_26                       1.000000
X_72_18                       1.000000
X_73_14                       1.000000
X_74_13                       1.000000
X_75_7                        1.000000
X_76_5                        1.000000
X_77_2                        1.000000
X_78_16                       1.000000
X_79_11                       1.000000
X_80_11                       1.000000
X_81_18                       1.000000
X_82_15                       1.000000
X_83_1                        1.000000
X_84_22                       1.000000
X_85_7                        1.000000
X_86_7                        1.000000
X_87_27                       1.000000
X_88_30                       1.000000
X_89_30                       1.000000
X_90_17                       1.000000
X_91_13                       1.000000
X_92_2                        1.000000
X_93_28                       1.000000
X_94_18                       1.000000
X_95_9                        1.000000
X_96_14                       1.000000
X_97_29                       1.000000
X_98_7                        1.000000
X_99_15                       1.000000
X_100_30                      1.000000
X_101_28                      1.000000
X_102_14                      1.000000
X_103_23                      1.000000
X_104_16                      1.000000
X_105_25                      1.000000
X_106_11                      1.000000
X_107_6                       1.000000
X_108_3                       1.000000
X_109_12                      1.000000
X_110_19                      1.000000
X_111_20                      1.000000
X_112_21                      1.000000
X_113_12                      1.000000
X_114_18                      1.000000
X_115_1                       1.000000
X_116_3                       1.000000
X_117_28                      1.000000
X_118_19                      1.000000
X_119_20                      1.000000
X_120_1                       1.000000
X_121_3                       1.000000
X_122_25                      1.000000
X_123_25                      1.000000
X_124_11                      1.000000
X_125_1                       1.000000
X_126_22                      1.000000
X_127_17                      1.000000
X_128_14                      1.000000
X_129_29                      1.000000
X_130_4                       1.000000
X_131_28                      1.000000
X_132_14                      1.000000
X_133_5                       1.000000
X_134_17                      1.000000
X_135_18                      1.000000
X_136_27                      1.000000
X_137_15                      1.000000
X_138_30                      1.000000
X_139_15                      1.000000
X_140_1                       1.000000
X_141_1                       1.000000
X_142_8                       1.000000
X_143_16                      1.000000
X_144_19                      1.000000
X_145_24                      1.000000
X_146_23                      1.000000
X_147_10                      1.000000
X_148_5                       1.000000
X_149_27                      1.000000
X_150_2                       1.000000
X_151_21                      1.000000
X_152_9                       1.000000
X_153_17                      1.000000
X_154_28                      1.000000
X_155_13                      1.000000
X_156_1                       1.000000
X_157_11                      1.000000
X_158_9                       1.000000
X_159_8                       1.000000
X_160_3                       1.000000
X_161_6                       1.000000
X_162_3                       1.000000
X_163_2                       1.000000
X_164_9                       1.000000
X_165_1                       1.000000
X_166_9                       1.000000
X_167_20                      1.000000
X_168_20                      1.000000
X_169_4                       1.000000
X_170_30                      1.000000
X_171_22                      1.000000
X_172_2                       1.000000
X_173_22                      1.000000
X_174_20                      1.000000
X_175_27                      1.000000
X_176_18                      1.000000
X_177_26                      1.000000
X_178_26                      1.000000
X_179_20                      1.000000
X_180_24                      1.000000
X_181_17                      1.000000
X_182_4                       1.000000
X_183_18                      1.000000
X_184_2                       1.000000
X_185_7                       1.000000
X_186_21                      1.000000
X_187_8                       1.000000
X_188_5                       1.000000
X_189_4                       1.000000
X_190_6                       1.000000
X_191_24                      1.000000
X_192_10                      1.000000
X_193_19                      1.000000
X_194_22                      1.000000
X_195_11                      1.000000
X_196_20                      1.000000
X_197_12                      1.000000
X_198_17                      1.000000
X_199_9                       1.000000
X_200_26                      1.000000
All other variables in the range 1-6001 are 0.
